c map8.map
p cnf 1320 2149
-3 -4 0
-3 -5 0
-4 -5 0
-1 -2 0
-2 -5 0
-1 -4 0
-5 1 0
-4 2 0
-69 -70 0
-69 -71 0
-70 -71 0
-67 -68 0
-68 -71 0
-67 -70 0
-71 67 0
-70 68 0
-135 -136 0
-135 -137 0
-136 -137 0
-133 -134 0
-134 -137 0
-133 -136 0
-137 133 0
-136 134 0
-201 -202 0
-201 -203 0
-202 -203 0
-199 -200 0
-200 -203 0
-199 -202 0
-203 199 0
-202 200 0
-267 -268 0
-267 -269 0
-268 -269 0
-265 -266 0
-266 -269 0
-265 -268 0
-269 265 0
-268 266 0
-333 -334 0
-333 -335 0
-334 -335 0
-331 -332 0
-332 -335 0
-331 -334 0
-335 331 0
-334 332 0
-399 -400 0
-399 -401 0
-400 -401 0
-397 -398 0
-398 -401 0
-397 -400 0
-401 397 0
-400 398 0
-465 -466 0
-465 -467 0
-466 -467 0
-463 -464 0
-464 -467 0
-463 -466 0
-467 463 0
-466 464 0
-531 -532 0
-531 -533 0
-532 -533 0
-529 -530 0
-530 -533 0
-529 -532 0
-533 529 0
-532 530 0
-597 -598 0
-597 -599 0
-598 -599 0
-595 -596 0
-596 -599 0
-595 -598 0
-599 595 0
-598 596 0
-663 -664 0
-663 -665 0
-664 -665 0
-661 -662 0
-662 -665 0
-661 -664 0
-665 661 0
-664 662 0
-729 -730 0
-729 -731 0
-730 -731 0
-727 -728 0
-728 -731 0
-727 -730 0
-731 727 0
-730 728 0
-795 -796 0
-795 -797 0
-796 -797 0
-793 -794 0
-794 -797 0
-793 -796 0
-797 793 0
-796 794 0
-861 -862 0
-861 -863 0
-862 -863 0
-859 -860 0
-860 -863 0
-859 -862 0
-863 859 0
-862 860 0
-927 -928 0
-927 -929 0
-928 -929 0
-925 -926 0
-926 -929 0
-925 -928 0
-929 925 0
-928 926 0
-993 -994 0
-993 -995 0
-994 -995 0
-991 -992 0
-992 -995 0
-991 -994 0
-995 991 0
-994 992 0
-1059 -1060 0
-1059 -1061 0
-1060 -1061 0
-1057 -1058 0
-1058 -1061 0
-1057 -1060 0
-1061 1057 0
-1060 1058 0
-1125 -1126 0
-1125 -1127 0
-1126 -1127 0
-1123 -1124 0
-1124 -1127 0
-1123 -1126 0
-1127 1123 0
-1126 1124 0
-1191 -1192 0
-1191 -1193 0
-1192 -1193 0
-1189 -1190 0
-1190 -1193 0
-1189 -1192 0
-1193 1189 0
-1192 1190 0
-1257 -1258 0
-1257 -1259 0
-1258 -1259 0
-1255 -1256 0
-1256 -1259 0
-1255 -1258 0
-1259 1255 0
-1258 1256 0
-9 -10 0
-9 -11 0
-10 -11 0
-7 -8 0
-8 -11 0
-7 -10 0
-11 7 0
-10 8 0
-75 -76 0
-75 -77 0
-76 -77 0
-73 -74 0
-74 -77 0
-73 -76 0
-77 73 0
-76 74 0
-141 -142 0
-141 -143 0
-142 -143 0
-139 -140 0
-140 -143 0
-139 -142 0
-143 139 0
-142 140 0
-207 -208 0
-207 -209 0
-208 -209 0
-205 -206 0
-206 -209 0
-205 -208 0
-209 205 0
-208 206 0
-273 -274 0
-273 -275 0
-274 -275 0
-271 -272 0
-272 -275 0
-271 -274 0
-275 271 0
-274 272 0
-339 -340 0
-339 -341 0
-340 -341 0
-337 -338 0
-338 -341 0
-337 -340 0
-341 337 0
-340 338 0
-405 -406 0
-405 -407 0
-406 -407 0
-403 -404 0
-404 -407 0
-403 -406 0
-407 403 0
-406 404 0
-471 -472 0
-471 -473 0
-472 -473 0
-469 -470 0
-470 -473 0
-469 -472 0
-473 469 0
-472 470 0
-537 -538 0
-537 -539 0
-538 -539 0
-535 -536 0
-536 -539 0
-535 -538 0
-539 535 0
-538 536 0
-603 -604 0
-603 -605 0
-604 -605 0
-601 -602 0
-602 -605 0
-601 -604 0
-605 601 0
-604 602 0
-669 -670 0
-669 -671 0
-670 -671 0
-667 -668 0
-668 -671 0
-667 -670 0
-671 667 0
-670 668 0
-735 -736 0
-735 -737 0
-736 -737 0
-733 -734 0
-734 -737 0
-733 -736 0
-737 733 0
-736 734 0
-801 -802 0
-801 -803 0
-802 -803 0
-799 -800 0
-800 -803 0
-799 -802 0
-803 799 0
-802 800 0
-867 -868 0
-867 -869 0
-868 -869 0
-865 -866 0
-866 -869 0
-865 -868 0
-869 865 0
-868 866 0
-933 -934 0
-933 -935 0
-934 -935 0
-931 -932 0
-932 -935 0
-931 -934 0
-935 931 0
-934 932 0
-999 -1000 0
-999 -1001 0
-1000 -1001 0
-997 -998 0
-998 -1001 0
-997 -1000 0
-1001 997 0
-1000 998 0
-1065 -1066 0
-1065 -1067 0
-1066 -1067 0
-1063 -1064 0
-1064 -1067 0
-1063 -1066 0
-1067 1063 0
-1066 1064 0
-1131 -1132 0
-1131 -1133 0
-1132 -1133 0
-1129 -1130 0
-1130 -1133 0
-1129 -1132 0
-1133 1129 0
-1132 1130 0
-1197 -1198 0
-1197 -1199 0
-1198 -1199 0
-1195 -1196 0
-1196 -1199 0
-1195 -1198 0
-1199 1195 0
-1198 1196 0
-1263 -1264 0
-1263 -1265 0
-1264 -1265 0
-1261 -1262 0
-1262 -1265 0
-1261 -1264 0
-1265 1261 0
-1264 1262 0
-15 -16 0
-15 -17 0
-16 -17 0
-13 -14 0
-14 -17 0
-13 -16 0
-17 13 0
-16 14 0
-81 -82 0
-81 -83 0
-82 -83 0
-79 -80 0
-80 -83 0
-79 -82 0
-83 79 0
-82 80 0
-147 -148 0
-147 -149 0
-148 -149 0
-145 -146 0
-146 -149 0
-145 -148 0
-149 145 0
-148 146 0
-213 -214 0
-213 -215 0
-214 -215 0
-211 -212 0
-212 -215 0
-211 -214 0
-215 211 0
-214 212 0
-279 -280 0
-279 -281 0
-280 -281 0
-277 -278 0
-278 -281 0
-277 -280 0
-281 277 0
-280 278 0
-345 -346 0
-345 -347 0
-346 -347 0
-343 -344 0
-344 -347 0
-343 -346 0
-347 343 0
-346 344 0
-411 -412 0
-411 -413 0
-412 -413 0
-409 -410 0
-410 -413 0
-409 -412 0
-413 409 0
-412 410 0
-477 -478 0
-477 -479 0
-478 -479 0
-475 -476 0
-476 -479 0
-475 -478 0
-479 475 0
-478 476 0
-543 -544 0
-543 -545 0
-544 -545 0
-541 -542 0
-542 -545 0
-541 -544 0
-545 541 0
-544 542 0
-609 -610 0
-609 -611 0
-610 -611 0
-607 -608 0
-608 -611 0
-607 -610 0
-611 607 0
-610 608 0
-675 -676 0
-675 -677 0
-676 -677 0
-673 -674 0
-674 -677 0
-673 -676 0
-677 673 0
-676 674 0
-741 -742 0
-741 -743 0
-742 -743 0
-739 -740 0
-740 -743 0
-739 -742 0
-743 739 0
-742 740 0
-807 -808 0
-807 -809 0
-808 -809 0
-805 -806 0
-806 -809 0
-805 -808 0
-809 805 0
-808 806 0
-873 -874 0
-873 -875 0
-874 -875 0
-871 -872 0
-872 -875 0
-871 -874 0
-875 871 0
-874 872 0
-939 -940 0
-939 -941 0
-940 -941 0
-937 -938 0
-938 -941 0
-937 -940 0
-941 937 0
-940 938 0
-1005 -1006 0
-1005 -1007 0
-1006 -1007 0
-1003 -1004 0
-1004 -1007 0
-1003 -1006 0
-1007 1003 0
-1006 1004 0
-1071 -1072 0
-1071 -1073 0
-1072 -1073 0
-1069 -1070 0
-1070 -1073 0
-1069 -1072 0
-1073 1069 0
-1072 1070 0
-1137 -1138 0
-1137 -1139 0
-1138 -1139 0
-1135 -1136 0
-1136 -1139 0
-1135 -1138 0
-1139 1135 0
-1138 1136 0
-1203 -1204 0
-1203 -1205 0
-1204 -1205 0
-1201 -1202 0
-1202 -1205 0
-1201 -1204 0
-1205 1201 0
-1204 1202 0
-1269 -1270 0
-1269 -1271 0
-1270 -1271 0
-1267 -1268 0
-1268 -1271 0
-1267 -1270 0
-1271 1267 0
-1270 1268 0
-21 -22 0
-21 -23 0
-22 -23 0
-19 -20 0
-20 -23 0
-19 -22 0
-23 19 0
-22 20 0
-87 -88 0
-87 -89 0
-88 -89 0
-85 -86 0
-86 -89 0
-85 -88 0
-89 85 0
-88 86 0
-153 -154 0
-153 -155 0
-154 -155 0
-151 -152 0
-152 -155 0
-151 -154 0
-155 151 0
-154 152 0
-219 -220 0
-219 -221 0
-220 -221 0
-217 -218 0
-218 -221 0
-217 -220 0
-221 217 0
-220 218 0
-285 -286 0
-285 -287 0
-286 -287 0
-283 -284 0
-284 -287 0
-283 -286 0
-287 283 0
-286 284 0
-351 -352 0
-351 -353 0
-352 -353 0
-349 -350 0
-350 -353 0
-349 -352 0
-353 349 0
-352 350 0
-417 -418 0
-417 -419 0
-418 -419 0
-415 -416 0
-416 -419 0
-415 -418 0
-419 415 0
-418 416 0
-483 -484 0
-483 -485 0
-484 -485 0
-481 -482 0
-482 -485 0
-481 -484 0
-485 481 0
-484 482 0
-549 -550 0
-549 -551 0
-550 -551 0
-547 -548 0
-548 -551 0
-547 -550 0
-551 547 0
-550 548 0
-615 -616 0
-615 -617 0
-616 -617 0
-613 -614 0
-614 -617 0
-613 -616 0
-617 613 0
-616 614 0
-681 -682 0
-681 -683 0
-682 -683 0
-679 -680 0
-680 -683 0
-679 -682 0
-683 679 0
-682 680 0
-747 -748 0
-747 -749 0
-748 -749 0
-745 -746 0
-746 -749 0
-745 -748 0
-749 745 0
-748 746 0
-813 -814 0
-813 -815 0
-814 -815 0
-811 -812 0
-812 -815 0
-811 -814 0
-815 811 0
-814 812 0
-879 -880 0
-879 -881 0
-880 -881 0
-877 -878 0
-878 -881 0
-877 -880 0
-881 877 0
-880 878 0
-945 -946 0
-945 -947 0
-946 -947 0
-943 -944 0
-944 -947 0
-943 -946 0
-947 943 0
-946 944 0
-1011 -1012 0
-1011 -1013 0
-1012 -1013 0
-1009 -1010 0
-1010 -1013 0
-1009 -1012 0
-1013 1009 0
-1012 1010 0
-1077 -1078 0
-1077 -1079 0
-1078 -1079 0
-1075 -1076 0
-1076 -1079 0
-1075 -1078 0
-1079 1075 0
-1078 1076 0
-1143 -1144 0
-1143 -1145 0
-1144 -1145 0
-1141 -1142 0
-1142 -1145 0
-1141 -1144 0
-1145 1141 0
-1144 1142 0
-1209 -1210 0
-1209 -1211 0
-1210 -1211 0
-1207 -1208 0
-1208 -1211 0
-1207 -1210 0
-1211 1207 0
-1210 1208 0
-1275 -1276 0
-1275 -1277 0
-1276 -1277 0
-1273 -1274 0
-1274 -1277 0
-1273 -1276 0
-1277 1273 0
-1276 1274 0
-27 -28 0
-27 -29 0
-28 -29 0
-25 -26 0
-26 -29 0
-25 -28 0
-29 25 0
-28 26 0
-93 -94 0
-93 -95 0
-94 -95 0
-91 -92 0
-92 -95 0
-91 -94 0
-95 91 0
-94 92 0
-159 -160 0
-159 -161 0
-160 -161 0
-157 -158 0
-158 -161 0
-157 -160 0
-161 157 0
-160 158 0
-225 -226 0
-225 -227 0
-226 -227 0
-223 -224 0
-224 -227 0
-223 -226 0
-227 223 0
-226 224 0
-291 -292 0
-291 -293 0
-292 -293 0
-289 -290 0
-290 -293 0
-289 -292 0
-293 289 0
-292 290 0
-357 -358 0
-357 -359 0
-358 -359 0
-355 -356 0
-356 -359 0
-355 -358 0
-359 355 0
-358 356 0
-423 -424 0
-423 -425 0
-424 -425 0
-421 -422 0
-422 -425 0
-421 -424 0
-425 421 0
-424 422 0
-489 -490 0
-489 -491 0
-490 -491 0
-487 -488 0
-488 -491 0
-487 -490 0
-491 487 0
-490 488 0
-555 -556 0
-555 -557 0
-556 -557 0
-553 -554 0
-554 -557 0
-553 -556 0
-557 553 0
-556 554 0
-621 -622 0
-621 -623 0
-622 -623 0
-619 -620 0
-620 -623 0
-619 -622 0
-623 619 0
-622 620 0
-687 -688 0
-687 -689 0
-688 -689 0
-685 -686 0
-686 -689 0
-685 -688 0
-689 685 0
-688 686 0
-753 -754 0
-753 -755 0
-754 -755 0
-751 -752 0
-752 -755 0
-751 -754 0
-755 751 0
-754 752 0
-819 -820 0
-819 -821 0
-820 -821 0
-817 -818 0
-818 -821 0
-817 -820 0
-821 817 0
-820 818 0
-885 -886 0
-885 -887 0
-886 -887 0
-883 -884 0
-884 -887 0
-883 -886 0
-887 883 0
-886 884 0
-951 -952 0
-951 -953 0
-952 -953 0
-949 -950 0
-950 -953 0
-949 -952 0
-953 949 0
-952 950 0
-1017 -1018 0
-1017 -1019 0
-1018 -1019 0
-1015 -1016 0
-1016 -1019 0
-1015 -1018 0
-1019 1015 0
-1018 1016 0
-1083 -1084 0
-1083 -1085 0
-1084 -1085 0
-1081 -1082 0
-1082 -1085 0
-1081 -1084 0
-1085 1081 0
-1084 1082 0
-1149 -1150 0
-1149 -1151 0
-1150 -1151 0
-1147 -1148 0
-1148 -1151 0
-1147 -1150 0
-1151 1147 0
-1150 1148 0
-1215 -1216 0
-1215 -1217 0
-1216 -1217 0
-1213 -1214 0
-1214 -1217 0
-1213 -1216 0
-1217 1213 0
-1216 1214 0
-1281 -1282 0
-1281 -1283 0
-1282 -1283 0
-1279 -1280 0
-1280 -1283 0
-1279 -1282 0
-1283 1279 0
-1282 1280 0
-33 -34 0
-33 -35 0
-34 -35 0
-31 -32 0
-32 -35 0
-31 -34 0
-35 31 0
-34 32 0
-99 -100 0
-99 -101 0
-100 -101 0
-97 -98 0
-98 -101 0
-97 -100 0
-101 97 0
-100 98 0
-165 -166 0
-165 -167 0
-166 -167 0
-163 -164 0
-164 -167 0
-163 -166 0
-167 163 0
-166 164 0
-231 -232 0
-231 -233 0
-232 -233 0
-229 -230 0
-230 -233 0
-229 -232 0
-233 229 0
-232 230 0
-297 -298 0
-297 -299 0
-298 -299 0
-295 -296 0
-296 -299 0
-295 -298 0
-299 295 0
-298 296 0
-363 -364 0
-363 -365 0
-364 -365 0
-361 -362 0
-362 -365 0
-361 -364 0
-365 361 0
-364 362 0
-429 -430 0
-429 -431 0
-430 -431 0
-427 -428 0
-428 -431 0
-427 -430 0
-431 427 0
-430 428 0
-495 -496 0
-495 -497 0
-496 -497 0
-493 -494 0
-494 -497 0
-493 -496 0
-497 493 0
-496 494 0
-561 -562 0
-561 -563 0
-562 -563 0
-559 -560 0
-560 -563 0
-559 -562 0
-563 559 0
-562 560 0
-627 -628 0
-627 -629 0
-628 -629 0
-625 -626 0
-626 -629 0
-625 -628 0
-629 625 0
-628 626 0
-693 -694 0
-693 -695 0
-694 -695 0
-691 -692 0
-692 -695 0
-691 -694 0
-695 691 0
-694 692 0
-759 -760 0
-759 -761 0
-760 -761 0
-757 -758 0
-758 -761 0
-757 -760 0
-761 757 0
-760 758 0
-825 -826 0
-825 -827 0
-826 -827 0
-823 -824 0
-824 -827 0
-823 -826 0
-827 823 0
-826 824 0
-891 -892 0
-891 -893 0
-892 -893 0
-889 -890 0
-890 -893 0
-889 -892 0
-893 889 0
-892 890 0
-957 -958 0
-957 -959 0
-958 -959 0
-955 -956 0
-956 -959 0
-955 -958 0
-959 955 0
-958 956 0
-1023 -1024 0
-1023 -1025 0
-1024 -1025 0
-1021 -1022 0
-1022 -1025 0
-1021 -1024 0
-1025 1021 0
-1024 1022 0
-1089 -1090 0
-1089 -1091 0
-1090 -1091 0
-1087 -1088 0
-1088 -1091 0
-1087 -1090 0
-1091 1087 0
-1090 1088 0
-1155 -1156 0
-1155 -1157 0
-1156 -1157 0
-1153 -1154 0
-1154 -1157 0
-1153 -1156 0
-1157 1153 0
-1156 1154 0
-1221 -1222 0
-1221 -1223 0
-1222 -1223 0
-1219 -1220 0
-1220 -1223 0
-1219 -1222 0
-1223 1219 0
-1222 1220 0
-1287 -1288 0
-1287 -1289 0
-1288 -1289 0
-1285 -1286 0
-1286 -1289 0
-1285 -1288 0
-1289 1285 0
-1288 1286 0
-39 -40 0
-39 -41 0
-40 -41 0
-37 -38 0
-38 -41 0
-37 -40 0
-41 37 0
-40 38 0
-105 -106 0
-105 -107 0
-106 -107 0
-103 -104 0
-104 -107 0
-103 -106 0
-107 103 0
-106 104 0
-171 -172 0
-171 -173 0
-172 -173 0
-169 -170 0
-170 -173 0
-169 -172 0
-173 169 0
-172 170 0
-237 -238 0
-237 -239 0
-238 -239 0
-235 -236 0
-236 -239 0
-235 -238 0
-239 235 0
-238 236 0
-303 -304 0
-303 -305 0
-304 -305 0
-301 -302 0
-302 -305 0
-301 -304 0
-305 301 0
-304 302 0
-369 -370 0
-369 -371 0
-370 -371 0
-367 -368 0
-368 -371 0
-367 -370 0
-371 367 0
-370 368 0
-435 -436 0
-435 -437 0
-436 -437 0
-433 -434 0
-434 -437 0
-433 -436 0
-437 433 0
-436 434 0
-501 -502 0
-501 -503 0
-502 -503 0
-499 -500 0
-500 -503 0
-499 -502 0
-503 499 0
-502 500 0
-567 -568 0
-567 -569 0
-568 -569 0
-565 -566 0
-566 -569 0
-565 -568 0
-569 565 0
-568 566 0
-633 -634 0
-633 -635 0
-634 -635 0
-631 -632 0
-632 -635 0
-631 -634 0
-635 631 0
-634 632 0
-699 -700 0
-699 -701 0
-700 -701 0
-697 -698 0
-698 -701 0
-697 -700 0
-701 697 0
-700 698 0
-765 -766 0
-765 -767 0
-766 -767 0
-763 -764 0
-764 -767 0
-763 -766 0
-767 763 0
-766 764 0
-831 -832 0
-831 -833 0
-832 -833 0
-829 -830 0
-830 -833 0
-829 -832 0
-833 829 0
-832 830 0
-897 -898 0
-897 -899 0
-898 -899 0
-895 -896 0
-896 -899 0
-895 -898 0
-899 895 0
-898 896 0
-963 -964 0
-963 -965 0
-964 -965 0
-961 -962 0
-962 -965 0
-961 -964 0
-965 961 0
-964 962 0
-1029 -1030 0
-1029 -1031 0
-1030 -1031 0
-1027 -1028 0
-1028 -1031 0
-1027 -1030 0
-1031 1027 0
-1030 1028 0
-1095 -1096 0
-1095 -1097 0
-1096 -1097 0
-1093 -1094 0
-1094 -1097 0
-1093 -1096 0
-1097 1093 0
-1096 1094 0
-1161 -1162 0
-1161 -1163 0
-1162 -1163 0
-1159 -1160 0
-1160 -1163 0
-1159 -1162 0
-1163 1159 0
-1162 1160 0
-1227 -1228 0
-1227 -1229 0
-1228 -1229 0
-1225 -1226 0
-1226 -1229 0
-1225 -1228 0
-1229 1225 0
-1228 1226 0
-1293 -1294 0
-1293 -1295 0
-1294 -1295 0
-1291 -1292 0
-1292 -1295 0
-1291 -1294 0
-1295 1291 0
-1294 1292 0
-45 -46 0
-45 -47 0
-46 -47 0
-43 -44 0
-44 -47 0
-43 -46 0
-47 43 0
-46 44 0
-111 -112 0
-111 -113 0
-112 -113 0
-109 -110 0
-110 -113 0
-109 -112 0
-113 109 0
-112 110 0
-177 -178 0
-177 -179 0
-178 -179 0
-175 -176 0
-176 -179 0
-175 -178 0
-179 175 0
-178 176 0
-243 -244 0
-243 -245 0
-244 -245 0
-241 -242 0
-242 -245 0
-241 -244 0
-245 241 0
-244 242 0
-309 -310 0
-309 -311 0
-310 -311 0
-307 -308 0
-308 -311 0
-307 -310 0
-311 307 0
-310 308 0
-375 -376 0
-375 -377 0
-376 -377 0
-373 -374 0
-374 -377 0
-373 -376 0
-377 373 0
-376 374 0
-441 -442 0
-441 -443 0
-442 -443 0
-439 -440 0
-440 -443 0
-439 -442 0
-443 439 0
-442 440 0
-507 -508 0
-507 -509 0
-508 -509 0
-505 -506 0
-506 -509 0
-505 -508 0
-509 505 0
-508 506 0
-573 -574 0
-573 -575 0
-574 -575 0
-571 -572 0
-572 -575 0
-571 -574 0
-575 571 0
-574 572 0
-639 -640 0
-639 -641 0
-640 -641 0
-637 -638 0
-638 -641 0
-637 -640 0
-641 637 0
-640 638 0
-705 -706 0
-705 -707 0
-706 -707 0
-703 -704 0
-704 -707 0
-703 -706 0
-707 703 0
-706 704 0
-771 -772 0
-771 -773 0
-772 -773 0
-769 -770 0
-770 -773 0
-769 -772 0
-773 769 0
-772 770 0
-837 -838 0
-837 -839 0
-838 -839 0
-835 -836 0
-836 -839 0
-835 -838 0
-839 835 0
-838 836 0
-903 -904 0
-903 -905 0
-904 -905 0
-901 -902 0
-902 -905 0
-901 -904 0
-905 901 0
-904 902 0
-969 -970 0
-969 -971 0
-970 -971 0
-967 -968 0
-968 -971 0
-967 -970 0
-971 967 0
-970 968 0
-1035 -1036 0
-1035 -1037 0
-1036 -1037 0
-1033 -1034 0
-1034 -1037 0
-1033 -1036 0
-1037 1033 0
-1036 1034 0
-1101 -1102 0
-1101 -1103 0
-1102 -1103 0
-1099 -1100 0
-1100 -1103 0
-1099 -1102 0
-1103 1099 0
-1102 1100 0
-1167 -1168 0
-1167 -1169 0
-1168 -1169 0
-1165 -1166 0
-1166 -1169 0
-1165 -1168 0
-1169 1165 0
-1168 1166 0
-1233 -1234 0
-1233 -1235 0
-1234 -1235 0
-1231 -1232 0
-1232 -1235 0
-1231 -1234 0
-1235 1231 0
-1234 1232 0
-1299 -1300 0
-1299 -1301 0
-1300 -1301 0
-1297 -1298 0
-1298 -1301 0
-1297 -1300 0
-1301 1297 0
-1300 1298 0
-51 -52 0
-51 -53 0
-52 -53 0
-49 -50 0
-50 -53 0
-49 -52 0
-53 49 0
-52 50 0
-117 -118 0
-117 -119 0
-118 -119 0
-115 -116 0
-116 -119 0
-115 -118 0
-119 115 0
-118 116 0
-183 -184 0
-183 -185 0
-184 -185 0
-181 -182 0
-182 -185 0
-181 -184 0
-185 181 0
-184 182 0
-249 -250 0
-249 -251 0
-250 -251 0
-247 -248 0
-248 -251 0
-247 -250 0
-251 247 0
-250 248 0
-315 -316 0
-315 -317 0
-316 -317 0
-313 -314 0
-314 -317 0
-313 -316 0
-317 313 0
-316 314 0
-381 -382 0
-381 -383 0
-382 -383 0
-379 -380 0
-380 -383 0
-379 -382 0
-383 379 0
-382 380 0
-447 -448 0
-447 -449 0
-448 -449 0
-445 -446 0
-446 -449 0
-445 -448 0
-449 445 0
-448 446 0
-513 -514 0
-513 -515 0
-514 -515 0
-511 -512 0
-512 -515 0
-511 -514 0
-515 511 0
-514 512 0
-579 -580 0
-579 -581 0
-580 -581 0
-577 -578 0
-578 -581 0
-577 -580 0
-581 577 0
-580 578 0
-645 -646 0
-645 -647 0
-646 -647 0
-643 -644 0
-644 -647 0
-643 -646 0
-647 643 0
-646 644 0
-711 -712 0
-711 -713 0
-712 -713 0
-709 -710 0
-710 -713 0
-709 -712 0
-713 709 0
-712 710 0
-777 -778 0
-777 -779 0
-778 -779 0
-775 -776 0
-776 -779 0
-775 -778 0
-779 775 0
-778 776 0
-843 -844 0
-843 -845 0
-844 -845 0
-841 -842 0
-842 -845 0
-841 -844 0
-845 841 0
-844 842 0
-909 -910 0
-909 -911 0
-910 -911 0
-907 -908 0
-908 -911 0
-907 -910 0
-911 907 0
-910 908 0
-975 -976 0
-975 -977 0
-976 -977 0
-973 -974 0
-974 -977 0
-973 -976 0
-977 973 0
-976 974 0
-1041 -1042 0
-1041 -1043 0
-1042 -1043 0
-1039 -1040 0
-1040 -1043 0
-1039 -1042 0
-1043 1039 0
-1042 1040 0
-1107 -1108 0
-1107 -1109 0
-1108 -1109 0
-1105 -1106 0
-1106 -1109 0
-1105 -1108 0
-1109 1105 0
-1108 1106 0
-1173 -1174 0
-1173 -1175 0
-1174 -1175 0
-1171 -1172 0
-1172 -1175 0
-1171 -1174 0
-1175 1171 0
-1174 1172 0
-1239 -1240 0
-1239 -1241 0
-1240 -1241 0
-1237 -1238 0
-1238 -1241 0
-1237 -1240 0
-1241 1237 0
-1240 1238 0
-1305 -1306 0
-1305 -1307 0
-1306 -1307 0
-1303 -1304 0
-1304 -1307 0
-1303 -1306 0
-1307 1303 0
-1306 1304 0
-57 -58 0
-57 -59 0
-58 -59 0
-55 -56 0
-56 -59 0
-55 -58 0
-59 55 0
-58 56 0
-123 -124 0
-123 -125 0
-124 -125 0
-121 -122 0
-122 -125 0
-121 -124 0
-125 121 0
-124 122 0
-189 -190 0
-189 -191 0
-190 -191 0
-187 -188 0
-188 -191 0
-187 -190 0
-191 187 0
-190 188 0
-255 -256 0
-255 -257 0
-256 -257 0
-253 -254 0
-254 -257 0
-253 -256 0
-257 253 0
-256 254 0
-321 -322 0
-321 -323 0
-322 -323 0
-319 -320 0
-320 -323 0
-319 -322 0
-323 319 0
-322 320 0
-387 -388 0
-387 -389 0
-388 -389 0
-385 -386 0
-386 -389 0
-385 -388 0
-389 385 0
-388 386 0
-453 -454 0
-453 -455 0
-454 -455 0
-451 -452 0
-452 -455 0
-451 -454 0
-455 451 0
-454 452 0
-519 -520 0
-519 -521 0
-520 -521 0
-517 -518 0
-518 -521 0
-517 -520 0
-521 517 0
-520 518 0
-585 -586 0
-585 -587 0
-586 -587 0
-583 -584 0
-584 -587 0
-583 -586 0
-587 583 0
-586 584 0
-651 -652 0
-651 -653 0
-652 -653 0
-649 -650 0
-650 -653 0
-649 -652 0
-653 649 0
-652 650 0
-717 -718 0
-717 -719 0
-718 -719 0
-715 -716 0
-716 -719 0
-715 -718 0
-719 715 0
-718 716 0
-783 -784 0
-783 -785 0
-784 -785 0
-781 -782 0
-782 -785 0
-781 -784 0
-785 781 0
-784 782 0
-849 -850 0
-849 -851 0
-850 -851 0
-847 -848 0
-848 -851 0
-847 -850 0
-851 847 0
-850 848 0
-915 -916 0
-915 -917 0
-916 -917 0
-913 -914 0
-914 -917 0
-913 -916 0
-917 913 0
-916 914 0
-981 -982 0
-981 -983 0
-982 -983 0
-979 -980 0
-980 -983 0
-979 -982 0
-983 979 0
-982 980 0
-1047 -1048 0
-1047 -1049 0
-1048 -1049 0
-1045 -1046 0
-1046 -1049 0
-1045 -1048 0
-1049 1045 0
-1048 1046 0
-1113 -1114 0
-1113 -1115 0
-1114 -1115 0
-1111 -1112 0
-1112 -1115 0
-1111 -1114 0
-1115 1111 0
-1114 1112 0
-1179 -1180 0
-1179 -1181 0
-1180 -1181 0
-1177 -1178 0
-1178 -1181 0
-1177 -1180 0
-1181 1177 0
-1180 1178 0
-1245 -1246 0
-1245 -1247 0
-1246 -1247 0
-1243 -1244 0
-1244 -1247 0
-1243 -1246 0
-1247 1243 0
-1246 1244 0
-1311 -1312 0
-1311 -1313 0
-1312 -1313 0
-1309 -1310 0
-1310 -1313 0
-1309 -1312 0
-1313 1309 0
-1312 1310 0
-63 -64 0
-63 -65 0
-64 -65 0
-61 -62 0
-62 -65 0
-61 -64 0
-65 61 0
-64 62 0
-129 -130 0
-129 -131 0
-130 -131 0
-127 -128 0
-128 -131 0
-127 -130 0
-131 127 0
-130 128 0
-195 -196 0
-195 -197 0
-196 -197 0
-193 -194 0
-194 -197 0
-193 -196 0
-197 193 0
-196 194 0
-261 -262 0
-261 -263 0
-262 -263 0
-259 -260 0
-260 -263 0
-259 -262 0
-263 259 0
-262 260 0
-327 -328 0
-327 -329 0
-328 -329 0
-325 -326 0
-326 -329 0
-325 -328 0
-329 325 0
-328 326 0
-393 -394 0
-393 -395 0
-394 -395 0
-391 -392 0
-392 -395 0
-391 -394 0
-395 391 0
-394 392 0
-459 -460 0
-459 -461 0
-460 -461 0
-457 -458 0
-458 -461 0
-457 -460 0
-461 457 0
-460 458 0
-525 -526 0
-525 -527 0
-526 -527 0
-523 -524 0
-524 -527 0
-523 -526 0
-527 523 0
-526 524 0
-591 -592 0
-591 -593 0
-592 -593 0
-589 -590 0
-590 -593 0
-589 -592 0
-593 589 0
-592 590 0
-657 -658 0
-657 -659 0
-658 -659 0
-655 -656 0
-656 -659 0
-655 -658 0
-659 655 0
-658 656 0
-723 -724 0
-723 -725 0
-724 -725 0
-721 -722 0
-722 -725 0
-721 -724 0
-725 721 0
-724 722 0
-789 -790 0
-789 -791 0
-790 -791 0
-787 -788 0
-788 -791 0
-787 -790 0
-791 787 0
-790 788 0
-855 -856 0
-855 -857 0
-856 -857 0
-853 -854 0
-854 -857 0
-853 -856 0
-857 853 0
-856 854 0
-921 -922 0
-921 -923 0
-922 -923 0
-919 -920 0
-920 -923 0
-919 -922 0
-923 919 0
-922 920 0
-987 -988 0
-987 -989 0
-988 -989 0
-985 -986 0
-986 -989 0
-985 -988 0
-989 985 0
-988 986 0
-1053 -1054 0
-1053 -1055 0
-1054 -1055 0
-1051 -1052 0
-1052 -1055 0
-1051 -1054 0
-1055 1051 0
-1054 1052 0
-1119 -1120 0
-1119 -1121 0
-1120 -1121 0
-1117 -1118 0
-1118 -1121 0
-1117 -1120 0
-1121 1117 0
-1120 1118 0
-1185 -1186 0
-1185 -1187 0
-1186 -1187 0
-1183 -1184 0
-1184 -1187 0
-1183 -1186 0
-1187 1183 0
-1186 1184 0
-1251 -1252 0
-1251 -1253 0
-1252 -1253 0
-1249 -1250 0
-1250 -1253 0
-1249 -1252 0
-1253 1249 0
-1252 1250 0
-1317 -1318 0
-1317 -1319 0
-1318 -1319 0
-1315 -1316 0
-1316 -1319 0
-1315 -1318 0
-1319 1315 0
-1318 1316 0
-285 0
-286 0
-287 0
-286 0
-287 0
-285 0
-283 0
284 0
213 0
213 0
-279 -345 -219 -351 -225 -291 -357 0
279 0
279 0
-213 -345 -219 -351 -225 -291 -357 0
345 0
345 0
-213 -279 -219 -351 -225 -291 -357 0
219 0
219 0
-213 -279 -345 -351 -225 -291 -357 0
351 0
351 0
-213 -279 -345 -219 -225 -291 -357 0
225 0
225 0
-213 -279 -345 -219 -351 -291 -357 0
291 0
291 0
-213 -279 -345 -219 -351 -225 -357 0
357 0
357 0
-213 -279 -345 -219 -351 -225 -291 0
214 0
214 0
-280 -346 -220 -352 -226 -292 -358 0
280 0
280 0
-214 -346 -220 -352 -226 -292 -358 0
346 0
346 0
-214 -280 -220 -352 -226 -292 -358 0
220 0
220 0
-214 -280 -346 -352 -226 -292 -358 0
352 0
352 0
-214 -280 -346 -220 -226 -292 -358 0
226 0
226 0
-214 -280 -346 -220 -352 -292 -358 0
292 0
292 0
-214 -280 -346 -220 -352 -226 -358 0
358 0
358 0
-214 -280 -346 -220 -352 -226 -292 0
215 0
215 0
-281 -347 -221 -353 -227 -293 -359 0
281 0
281 0
-215 -347 -221 -353 -227 -293 -359 0
347 0
347 0
-215 -281 -221 -353 -227 -293 -359 0
221 0
221 0
-215 -281 -347 -353 -227 -293 -359 0
353 0
353 0
-215 -281 -347 -221 -227 -293 -359 0
227 0
227 0
-215 -281 -347 -221 -353 -293 -359 0
293 0
293 0
-215 -281 -347 -221 -353 -227 -359 0
359 0
359 0
-215 -281 -347 -221 -353 -227 -293 0
-211 0
212 0
-277 0
278 0
-343 0
344 0
-217 0
218 0
-349 0
350 0
-223 0
224 0
-289 0
290 0
-355 0
356 0
-358 0
-359 0
-357 0
285 351 0
285 351 0
-417 -291 -423 -297 -363 -429 0
285 417 0
285 417 0
-351 -291 -423 -297 -363 -429 0
285 291 0
285 291 0
-351 -417 -423 -297 -363 -429 0
285 423 0
285 423 0
-351 -417 -291 -297 -363 -429 0
285 297 0
285 297 0
-351 -417 -291 -423 -363 -429 0
285 363 0
285 363 0
-351 -417 -291 -423 -297 -429 0
285 429 0
285 429 0
-351 -417 -291 -423 -297 -363 0
351 417 0
351 417 0
-285 -291 -423 -297 -363 -429 0
351 291 0
351 291 0
-285 -417 -423 -297 -363 -429 0
351 423 0
351 423 0
-285 -417 -291 -297 -363 -429 0
351 297 0
351 297 0
-285 -417 -291 -423 -363 -429 0
351 363 0
351 363 0
-285 -417 -291 -423 -297 -429 0
351 429 0
351 429 0
-285 -417 -291 -423 -297 -363 0
417 291 0
417 291 0
-285 -351 -423 -297 -363 -429 0
417 423 0
417 423 0
-285 -351 -291 -297 -363 -429 0
417 297 0
417 297 0
-285 -351 -291 -423 -363 -429 0
417 363 0
417 363 0
-285 -351 -291 -423 -297 -429 0
417 429 0
417 429 0
-285 -351 -291 -423 -297 -363 0
291 423 0
291 423 0
-285 -351 -417 -297 -363 -429 0
291 297 0
291 297 0
-285 -351 -417 -423 -363 -429 0
291 363 0
291 363 0
-285 -351 -417 -423 -297 -429 0
291 429 0
291 429 0
-285 -351 -417 -423 -297 -363 0
423 297 0
423 297 0
-285 -351 -417 -291 -363 -429 0
423 363 0
423 363 0
-285 -351 -417 -291 -297 -429 0
423 429 0
423 429 0
-285 -351 -417 -291 -297 -363 0
297 363 0
297 363 0
-285 -351 -417 -291 -423 -429 0
297 429 0
297 429 0
-285 -351 -417 -291 -423 -363 0
363 429 0
363 429 0
-285 -351 -417 -291 -423 -297 0
286 0
286 0
-352 -418 -292 -424 -298 -364 -430 0
352 0
352 0
-286 -418 -292 -424 -298 -364 -430 0
418 0
418 0
-286 -352 -292 -424 -298 -364 -430 0
292 0
292 0
-286 -352 -418 -424 -298 -364 -430 0
424 0
424 0
-286 -352 -418 -292 -298 -364 -430 0
298 0
298 0
-286 -352 -418 -292 -424 -364 -430 0
364 0
364 0
-286 -352 -418 -292 -424 -298 -430 0
430 0
430 0
-286 -352 -418 -292 -424 -298 -364 0
287 0
287 0
-353 -419 -293 -425 -299 -365 -431 0
353 0
353 0
-287 -419 -293 -425 -299 -365 -431 0
419 0
419 0
-287 -353 -293 -425 -299 -365 -431 0
293 0
293 0
-287 -353 -419 -425 -299 -365 -431 0
425 0
425 0
-287 -353 -419 -293 -299 -365 -431 0
299 0
299 0
-287 -353 -419 -293 -425 -365 -431 0
365 0
365 0
-287 -353 -419 -293 -425 -299 -431 0
431 0
431 0
-287 -353 -419 -293 -425 -299 -365 0
-415 0
416 0
-421 0
422 0
-295 0
296 0
-361 0
362 0
-427 0
428 0
-430 0
-431 0
-429 0
357 423 0
357 423 0
-489 -363 -495 -369 -435 -501 0
357 489 0
357 489 0
-423 -363 -495 -369 -435 -501 0
357 363 0
357 363 0
-423 -489 -495 -369 -435 -501 0
357 495 0
357 495 0
-423 -489 -363 -369 -435 -501 0
357 369 0
357 369 0
-423 -489 -363 -495 -435 -501 0
357 435 0
357 435 0
-423 -489 -363 -495 -369 -501 0
357 501 0
357 501 0
-423 -489 -363 -495 -369 -435 0
423 489 0
423 489 0
-357 -363 -495 -369 -435 -501 0
423 363 0
423 363 0
-357 -489 -495 -369 -435 -501 0
423 495 0
423 495 0
-357 -489 -363 -369 -435 -501 0
423 369 0
423 369 0
-357 -489 -363 -495 -435 -501 0
423 435 0
423 435 0
-357 -489 -363 -495 -369 -501 0
423 501 0
423 501 0
-357 -489 -363 -495 -369 -435 0
489 363 0
489 363 0
-357 -423 -495 -369 -435 -501 0
489 495 0
489 495 0
-357 -423 -363 -369 -435 -501 0
489 369 0
489 369 0
-357 -423 -363 -495 -435 -501 0
489 435 0
489 435 0
-357 -423 -363 -495 -369 -501 0
489 501 0
489 501 0
-357 -423 -363 -495 -369 -435 0
363 495 0
363 495 0
-357 -423 -489 -369 -435 -501 0
363 369 0
363 369 0
-357 -423 -489 -495 -435 -501 0
363 435 0
363 435 0
-357 -423 -489 -495 -369 -501 0
363 501 0
363 501 0
-357 -423 -489 -495 -369 -435 0
495 369 0
495 369 0
-357 -423 -489 -363 -435 -501 0
495 435 0
495 435 0
-357 -423 -489 -363 -369 -501 0
495 501 0
495 501 0
-357 -423 -489 -363 -369 -435 0
369 435 0
369 435 0
-357 -423 -489 -363 -495 -501 0
369 501 0
369 501 0
-357 -423 -489 -363 -495 -435 0
435 501 0
435 501 0
-357 -423 -489 -363 -495 -369 0
358 0
358 0
-424 -490 -364 -496 -370 -436 -502 0
424 0
424 0
-358 -490 -364 -496 -370 -436 -502 0
490 0
490 0
-358 -424 -364 -496 -370 -436 -502 0
364 0
364 0
-358 -424 -490 -496 -370 -436 -502 0
496 0
496 0
-358 -424 -490 -364 -370 -436 -502 0
370 0
370 0
-358 -424 -490 -364 -496 -436 -502 0
436 0
436 0
-358 -424 -490 -364 -496 -370 -502 0
502 0
502 0
-358 -424 -490 -364 -496 -370 -436 0
359 0
359 0
-425 -491 -365 -497 -371 -437 -503 0
425 0
425 0
-359 -491 -365 -497 -371 -437 -503 0
491 0
491 0
-359 -425 -365 -497 -371 -437 -503 0
365 0
365 0
-359 -425 -491 -497 -371 -437 -503 0
497 0
497 0
-359 -425 -491 -365 -371 -437 -503 0
371 0
371 0
-359 -425 -491 -365 -497 -437 -503 0
437 0
437 0
-359 -425 -491 -365 -497 -371 -503 0
503 0
503 0
-359 -425 -491 -365 -497 -371 -437 0
-487 0
488 0
-493 0
494 0
-367 0
368 0
-433 0
434 0
-499 0
500 0
-502 0
-503 0
-501 0
